
Log started (V12.10.0.0) Fri Apr  2 11:16:16 2021


Problem 'asset.lp' read.
Read time = 0.00 sec. (0.05 ticks)
New value for default parallel thread count: 1
New value for time limit in seconds: 400
Version identifier: 12.10.0.0 | 2019-11-26 | 843d4de
CPXPARAM_Threads                                 1
CPXPARAM_TimeLimit                               400
Found incumbent of value -0.901065 after 0.00 sec. (0.03 ticks)
Tried aggregator 4 times.
MIP Presolve eliminated 115 rows and 60 columns.
MIP Presolve added 2 rows and 0 columns.
MIP Presolve modified 547 coefficients.
Aggregator did 159 substitutions.
Reduced MIP has 246 rows, 244 columns, and 977 nonzeros.
Reduced MIP has 208 binaries, 20 generals, 0 SOSs, and 0 indicators.
Presolve time = 0.00 sec. (2.20 ticks)
Probing fixed 57 vars, tightened 6 bounds.
Probing time = 0.00 sec. (0.42 ticks)
Tried aggregator 1 time.
MIP Presolve eliminated 98 rows and 86 columns.
Reduced MIP has 148 rows, 154 columns, and 471 nonzeros.
Reduced MIP has 128 binaries, 10 generals, 0 SOSs, and 0 indicators.
Presolve time = 0.00 sec. (0.51 ticks)
Probing time = 0.00 sec. (0.14 ticks)
Tried aggregator 1 time.
Detecting symmetries...
MIP Presolve modified 6 coefficients.
Reduced MIP has 148 rows, 154 columns, and 471 nonzeros.
Reduced MIP has 128 binaries, 10 generals, 0 SOSs, and 0 indicators.
Presolve time = 0.00 sec. (0.33 ticks)
Probing time = 0.00 sec. (0.14 ticks)
Clique table members: 89.
MIP emphasis: balance optimality and feasibility.
MIP search method: dynamic search.
Parallel mode: none, using 1 thread.
Root relaxation solution time = 0.00 sec. (0.62 ticks)

        Nodes                                         Cuts/
   Node  Left     Objective  IInf  Best Integer    Best Bound    ItCnt     Gap

*     0+    0                           -0.9011       32.4789              --- 
      0     0       30.2846    40       -0.9011       30.2846       82     --- 
*     0+    0                           30.2731       30.2846             0.04%
      0     0       30.2784    40       30.2731      Cuts: 38      123    0.02%
*     0+    0                           30.2734       30.2784             0.02%
      0     0       30.2766    40       30.2734      Cuts: 40      159    0.01%
Detecting symmetries...

Repeating presolve.
Tried aggregator 4 times.
MIP Presolve eliminated 75 rows and 82 columns.
MIP Presolve added 4 rows and 0 columns.
MIP Presolve modified 10 coefficients.
Aggregator did 8 substitutions.
Reduced MIP has 69 rows, 63 columns, and 198 nonzeros.
Reduced MIP has 54 binaries, 2 generals, 0 SOSs, and 0 indicators.
Presolve time = 0.00 sec. (0.38 ticks)
Probing time = 0.00 sec. (0.05 ticks)
Cover probing fixed 0 vars, tightened 10 bounds.
Tried aggregator 1 time.
Detecting symmetries...
MIP Presolve eliminated 11 rows and 0 columns.
MIP Presolve modified 42 coefficients.
Reduced MIP has 58 rows, 63 columns, and 176 nonzeros.
Reduced MIP has 54 binaries, 2 generals, 0 SOSs, and 0 indicators.
Presolve time = 0.00 sec. (0.13 ticks)
Represolve time = 0.00 sec. (0.83 ticks)
Probing time = 0.00 sec. (0.05 ticks)
Clique table members: 17.
MIP emphasis: balance optimality and feasibility.
MIP search method: dynamic search.
Parallel mode: none, using 1 thread.
Root relaxation solution time = 0.00 sec. (0.31 ticks)

        Nodes                                         Cuts/
   Node  Left     Objective  IInf  Best Integer    Best Bound    ItCnt     Gap

*     0+    0                           30.2735       30.2766             0.01%
      0     0       30.2757    15       30.2735       30.2757      196    0.01%

Implied bound cuts applied:  5
Mixed integer rounding cuts applied:  2
Lift and project cuts applied:  4
Gomory fractional cuts applied:  8

Root node processing (before b&c):
  Real time             =    0.02 sec. (12.07 ticks)
Sequential b&c:
  Real time             =    0.00 sec. (0.00 ticks)
                          ------------
Total (root+branch&cut) =    0.02 sec. (12.07 ticks)

Solution pool: 5 solutions saved.

MIP - Integer optimal, tolerance (0.0001/1e-06):  Objective =  3.0273467465e+01
Current MIP best bound =  3.0275715759e+01 (gap = 0.00224829, 0.01%)
Solution time =    0.02 sec.  Iterations = 196  Nodes = 0 (1)
Deterministic time = 12.07 ticks  (563.78 ticks/sec)


Incumbent solution
Variable Name           Solution Value
F                            54.000000
f1                            0.926533
f2                           22.800000
y24                           1.000000
y201                          1.000000
y329                          1.000000
y171                          1.000000
y256                          1.000000
y166                          1.000000
y30                           1.000000
y204                          1.000000
s21                           6.000000
s24                           6.230605
s86                           6.000000
s201                          6.267691
s240                          6.000000
s243                          6.000000
s263                          6.000000
s297                          6.000000
s329                          6.229520
s35                           6.330000
s37                           6.330000
s171                          6.436375
s121                          6.390000
s256                          6.916929
s166                          7.435447
s30                           6.870613
s204                          6.909011
s52                           6.480000
x193x166x1                    1.000000
x193x30x1                     1.000000
x285x30x1                     1.000000
x200x166x1                    1.000000
x323x329x1                    1.000000
x98x171x1                     1.000000
x251x204x2                    1.000000
x292x171x2                    1.000000
x292x256x2                    1.000000
x98x329x2                     1.000000
x146x256x3                    1.000000
x73x204x3                     1.000000
x323x24x3                     1.000000
x12x201x3                     2.000000
x188x24x3                     1.000000
x24x0x3                       2.000000
x201x0x3                      2.000000
x329x0x1                      1.000000
x329x0x2                      1.000000
x171x0x1                      1.000000
x171x0x2                      1.000000
x256x0x2                      1.000000
x256x0x3                      1.000000
x166x0x1                      2.000000
x30x0x1                       2.000000
x204x0x2                      1.000000
x204x0x3                      1.000000
s146                          5.266645
z146z256z3                    1.000000
s193                          5.421377
z193z166z1                    1.000000
z193z30z1                     1.000000
s73                           5.306099
z73z204z3                     1.000000
s285                          5.202079
z285z30z1                     1.000000
s200                          5.934239
z200z166z1                    1.000000
s124                          5.900000
s251                          4.742330
z251z204z2                    1.000000
s292                          4.835900
z292z171z2                    1.000000
z292z256z2                    1.000000
s323                          4.799870
z323z24z3                     1.000000
z323z329z1                    1.000000
z323z166z1                    1.000000
z323z30z1                     1.000000
z323z52z3                     1.000000
s98                           4.832980
z98z329z2                     1.000000
z98z171z1                     1.000000
s12                           4.863790
z12z201z3                     1.000000
z12z52z3                      1.000000
s188                          3.487780
z188z24z3                     1.000000
z188z201z3                    1.000000
z188z35z3                     1.000000
z188z52z3                     1.000000
All other variables in the range 1-465 are 0.
